ALGO = Veryfast
EDIFF = 0.0001
ENCUT = 520
IBRION = -1
ISIF = 3
ISMEAR = 0
ISPIN = 2

ISYM = -1
LAECHG = False
LASPH = True
LCHARG = True
LELF = False
LOCPOT = False
LOPTICS = False
LORBIT = 11
LREAL = False
LVHAR = False
LWAVE = True
NBANDS = 8
NELM = 100
NSW = 0
PREC = Accurate
SIGMA = 0.1
