B1 N1
1.0
0.000000 1.812856 1.812856
1.812856 0.000000 1.812856
1.812856 1.812856 0.000000
B N
1 1
direct
0.000000 0.000000 0.000000 B
0.250000 0.250000 0.250000 N
